tsp_instances/TSP20/instance95.tsp
NODE_COORD_SECTION
0 84 104
1 155 19
2 150 56
3 129 93
4 166 13
5 148 157
6 121 184
7 95 5
8 115 195
9 25 117
10 100 83
11 91 35
12 86 36
13 25 56
14 80 166
15 7 126
16 32 146
17 11 37
18 3 174
19 88 131
