tsp_instances/TSP20/instance95.opt.tour
TOUR_SECTION
1
11
4
3
2
5
8
12
13
18
14
10
16
19
17
15
9
7
6
20
-1